Features/ForMiniZinc/benchmark_puzzles/benchmarks4x4/50/puzzle1.dzn
S = 4;
start = [|0,3,0,0,10,6,15,0,16,14,4,0,12,0,0,0|
4,10,16,6,0,8,0,0,0,0,7,5,0,1,0,0|
12,11,0,0,0,0,16,9,6,0,1,8,13,5,4,0|
8,1,0,0,0,0,0,0,12,0,10,13,16,0,7,15|
7,0,6,2,0,0,9,0,0,0,13,1,0,3,0,0|
0,0,0,4,2,0,0,0,0,6,12,0,0,8,1,5|
0,14,1,0,13,0,7,0,2,8,0,3,0,0,6,12|
10,0,0,0,0,0,0,6,0,0,0,0,0,0,0,0|
2,0,11,0,0,0,10,0,0,4,8,16,0,12,0,13|
9,7,0,0,0,11,0,16,1,0,0,0,5,2,0,0|
14,0,15,13,12,0,0,2,0,0,0,0,4,10,0,1|
16,0,0,0,1,0,8,3,0,0,0,0,11,0,0,0|
0,0,0,0,4,0,2,7,0,0,0,0,0,0,0,0|
0,0,0,0,0,0,0,5,11,0,14,0,8,0,0,0|
0,2,0,0,0,0,3,0,0,16,6,12,0,13,10,4|
0,0,13,16,6,0,11,0,0,10,0,0,7,14,0,0|];